\ Model QCP
\ LP format - for model browsing. Use MPS format to capture full model detail.
Minimize
  z + y
Subject To
 Cut_0: z + [ ] >= 660
 Cut_1: z + [ ] >= 660
 Cut_2: z + [ ] >= 660
 Cut_3: z + [ ] >= 660
 Cut_4: z + [ ] >= 660
 Cut_5: z + [ ] >= 660
 Cut_6: z + [ ] >= 660
 Cut_7: z + [ ] >= 660
 Cut_8: z + [ ] >= 660
 Cut_9: z + [ ] >= 660
Bounds
 z = 660
 y = 11
End
